(declare-fun var0 () String)
(assert (RegexIn var0 (RegexConcat (RegexUnion (RegexPlus (RegexUnion (RegexUnion (RegexStar (RegexUnion (RegexStar (RegexUnion (RegexStar (RegexPlus (RegexPlus (RegexStar (RegexPlus (RegexPlus (RegexUnion (RegexStar (RegexStar (Str2Reg "jj"))) (RegexUnion (RegexPlus (Str2Reg "kkkk")) (RegexUnion (Str2Reg "lllll") (Str2Reg "mm")))))))))) (RegexStar (RegexStar (RegexUnion (RegexPlus (RegexUnion (RegexStar (RegexStar (RegexUnion (RegexPlus (Str2Reg "nn")) (RegexStar (Str2Reg "ooo"))))) (RegexPlus (RegexPlus (RegexStar (RegexUnion (Str2Reg "ppp") (Str2Reg "qqq"))))))) (RegexPlus (RegexPlus (RegexUnion (RegexStar (RegexUnion (RegexPlus (Str2Reg "rrr")) (RegexStar (Str2Reg "ssss")))) (RegexStar (RegexUnion (RegexPlus (Str2Reg "ttttt")) (RegexStar (Str2Reg "uu")))))))))))) (RegexStar (RegexUnion (RegexStar (RegexUnion (RegexPlus (RegexUnion (RegexPlus (RegexPlus (RegexPlus (RegexPlus (RegexUnion (Str2Reg "vvvv") (Str2Reg "wwwww")))))) (RegexUnion (RegexStar (RegexStar (RegexStar (RegexUnion (Str2Reg "xx") (Str2Reg "yy"))))) (RegexStar (RegexUnion (RegexPlus (RegexUnion (Str2Reg "zzzz") (Str2Reg "AA"))) (RegexPlus (RegexUnion (Str2Reg "BB") (Str2Reg "CCCCC")))))))) (RegexPlus (RegexStar (RegexPlus (RegexUnion (RegexPlus (RegexUnion (RegexPlus (Str2Reg "DDDDD")) (RegexPlus (Str2Reg "EEE")))) (RegexStar (RegexStar (RegexStar (Str2Reg "FFFF")))))))))) (RegexPlus (RegexPlus (RegexPlus (RegexUnion (RegexUnion (RegexStar (RegexPlus (RegexUnion (RegexUnion (Str2Reg "GGGG") (Str2Reg "HHHH")) (RegexPlus (Str2Reg "III"))))) (RegexStar (RegexPlus (RegexPlus (RegexUnion (Str2Reg "JJJJ") (Str2Reg "KKK")))))) (RegexUnion (RegexUnion (RegexPlus (RegexPlus (RegexStar (Str2Reg "LLLLL")))) (RegexStar (RegexUnion (RegexPlus (Str2Reg "MMM")) (RegexStar (Str2Reg "NN"))))) (RegexStar (RegexPlus (RegexUnion (RegexPlus (Str2Reg "OOOOO")) (RegexStar (Str2Reg "PPP")))))))))))))) (RegexStar (RegexPlus (RegexPlus (RegexPlus (RegexStar (RegexStar (RegexStar (RegexPlus (RegexStar (RegexPlus (RegexUnion (RegexStar (RegexStar (Str2Reg "QQQ"))) (RegexStar (RegexUnion (Str2Reg "RRR") (Str2Reg "SSSSS"))))))))))))))) (RegexStar (RegexUnion (RegexStar (RegexStar (RegexPlus (RegexStar (RegexPlus (RegexUnion (RegexPlus (RegexPlus (RegexUnion (RegexStar (RegexUnion (RegexStar (Str2Reg "TTTTT")) (RegexStar (Str2Reg "UUUU")))) (RegexUnion (RegexUnion (RegexStar (Str2Reg "VV")) (RegexUnion (Str2Reg "WWW") (Str2Reg "XXXXX"))) (RegexUnion (RegexStar (Str2Reg "YYYYY")) (RegexUnion (Str2Reg "ZZZ") (Str2Reg "!!"))))))) (RegexUnion (RegexPlus (RegexStar (RegexStar (RegexStar (RegexPlus (Str2Reg "\"\"\"\"")))))) (RegexStar (RegexPlus (RegexStar (RegexPlus (RegexStar (Str2Reg "##"))))))))))))) (RegexPlus (RegexUnion (RegexStar (RegexStar (RegexStar (RegexStar (RegexPlus (RegexUnion (RegexStar (RegexStar (RegexUnion (RegexUnion (Str2Reg "$$$") (Str2Reg "%%%%%")) (RegexPlus (Str2Reg "&&&"))))) (RegexUnion (RegexPlus (RegexStar (RegexPlus (Str2Reg "''")))) (RegexStar (RegexPlus (RegexPlus (Str2Reg "((((("))))))))))) (RegexUnion (RegexStar (RegexStar (RegexStar (RegexPlus (RegexUnion (RegexUnion (RegexPlus (RegexPlus (RegexUnion (Str2Reg "))))") (Str2Reg "*****")))) (RegexUnion (RegexPlus (RegexUnion (Str2Reg "+++") (Str2Reg ",,"))) (RegexPlus (RegexStar (Str2Reg "--"))))) (RegexPlus (RegexPlus (RegexPlus (RegexStar (Str2Reg "...")))))))))) (RegexStar (RegexUnion (RegexPlus (RegexPlus (RegexStar (RegexStar (RegexStar (RegexPlus (RegexStar (Str2Reg "///")))))))) (RegexUnion (RegexPlus (RegexStar (RegexPlus (RegexStar (RegexPlus (RegexUnion (Str2Reg ":::") (Str2Reg ";;;"))))))) (RegexPlus (RegexStar (RegexUnion (RegexUnion (RegexStar (RegexUnion (Str2Reg "<<") (Str2Reg "===="))) (RegexStar (RegexStar (Str2Reg ">>>")))) (RegexPlus (RegexStar (RegexPlus (Str2Reg "???"))))))))))))))))) (RegexUnion (RegexStar (RegexPlus (RegexPlus (RegexPlus (RegexStar (RegexPlus (RegexUnion (RegexPlus (RegexStar (RegexUnion (RegexPlus (RegexUnion (RegexPlus (RegexPlus (RegexUnion (Str2Reg "@@@@@") (Str2Reg "[[[")))) (RegexPlus (RegexStar (RegexPlus (Str2Reg "\\\\")))))) (RegexPlus (RegexUnion (RegexStar (RegexStar (RegexStar (Str2Reg "]]")))) (RegexStar (RegexUnion (RegexUnion (Str2Reg "^^^^^") (Str2Reg "____")) (RegexUnion (Str2Reg "``") (Str2Reg "{{{{"))))))))) (RegexStar (RegexUnion (RegexPlus (RegexUnion (RegexStar (RegexPlus (RegexStar (RegexPlus (Str2Reg "||"))))) (RegexPlus (RegexUnion (RegexPlus (RegexStar (Str2Reg "}}}"))) (RegexPlus (RegexPlus (Str2Reg "~~"))))))) (RegexUnion (RegexStar (RegexPlus (RegexStar (RegexUnion (RegexUnion (Str2Reg "00") (Str2Reg "1111")) (RegexUnion (Str2Reg "22") (Str2Reg "33")))))) (RegexStar (RegexPlus (RegexPlus (RegexStar (RegexUnion (Str2Reg "444") (Str2Reg "555")))))))))))))))) (RegexStar (RegexStar (RegexPlus (RegexStar (RegexStar (RegexUnion (RegexStar (RegexUnion (RegexPlus (RegexStar (RegexStar (RegexUnion (RegexPlus (RegexPlus (RegexStar (Str2Reg "66")))) (RegexStar (RegexUnion (RegexStar (Str2Reg "77777")) (RegexPlus (Str2Reg "8888")))))))) (RegexUnion (RegexUnion (RegexPlus (RegexStar (RegexPlus (RegexStar (RegexUnion (Str2Reg "99999") (Str2Reg "aaaa")))))) (RegexStar (RegexUnion (RegexPlus (RegexPlus (RegexUnion (Str2Reg "bbb") (Str2Reg "ccccc")))) (RegexPlus (RegexStar (RegexUnion (Str2Reg "ddd") (Str2Reg "ee"))))))) (RegexStar (RegexStar (RegexPlus (RegexStar (RegexPlus (RegexStar (Str2Reg "ffff")))))))))) (RegexUnion (RegexStar (RegexPlus (RegexPlus (RegexUnion (RegexStar (RegexPlus (RegexUnion (RegexPlus (Str2Reg "ggg")) (RegexStar (Str2Reg "hhhh"))))) (RegexUnion (RegexPlus (RegexStar (RegexUnion (Str2Reg "ii") (Str2Reg "jj")))) (RegexUnion (RegexUnion (RegexUnion (Str2Reg "kkkkk") (Str2Reg "lllll")) (RegexStar (Str2Reg "mmmmm"))) (RegexStar (RegexPlus (Str2Reg "nn"))))))))) (RegexStar (RegexStar (RegexStar (RegexStar (RegexUnion (RegexUnion (RegexStar (RegexStar (Str2Reg "oo"))) (RegexStar (RegexUnion (Str2Reg "ppppp") (Str2Reg "qqqqq")))) (RegexStar (RegexStar (RegexStar (Str2Reg "rrrrr")))))))))))))))))) (RegexPlus (RegexStar (RegexStar (RegexStar (RegexStar (RegexStar (RegexUnion (RegexPlus (RegexPlus (RegexPlus (RegexPlus (RegexPlus (RegexStar (RegexPlus (RegexUnion (RegexUnion (RegexStar (Str2Reg "0000")) (RegexPlus (Str2Reg "111"))) (RegexUnion (RegexUnion (Str2Reg "22") (Str2Reg "33")) (RegexStar (Str2Reg "44"))))))))))) (RegexStar (RegexUnion (RegexPlus (RegexUnion (RegexStar (RegexStar (RegexStar (RegexPlus (RegexPlus (RegexStar (Str2Reg "55555"))))))) (RegexUnion (RegexStar (RegexPlus (RegexUnion (RegexPlus (RegexPlus (Str2Reg "66"))) (RegexStar (RegexUnion (Str2Reg "7777") (Str2Reg "8888")))))) (RegexUnion (RegexUnion (RegexStar (RegexUnion (RegexStar (Str2Reg "999")) (RegexStar (Str2Reg "aaa")))) (RegexStar (RegexPlus (RegexPlus (Str2Reg "bbb"))))) (RegexStar (RegexStar (RegexStar (RegexPlus (Str2Reg "cccc"))))))))) (RegexUnion (RegexStar (RegexUnion (RegexPlus (RegexPlus (RegexStar (RegexStar (RegexPlus (Str2Reg "dd")))))) (RegexPlus (RegexPlus (RegexUnion (RegexPlus (RegexStar (Str2Reg "eeeee"))) (RegexPlus (RegexStar (Str2Reg "ffff")))))))) (RegexPlus (RegexPlus (RegexPlus (RegexStar (RegexStar (RegexUnion (RegexStar (Str2Reg "ggg")) (RegexUnion (Str2Reg "hhhhh") (Str2Reg "ii")))))))))))))))))))))
(assert (<= 15 (Length var0)))
(check-sat)